\ Model ajuste
\ LP format - for model browsing. Use MPS format to capture full model detail.
Minimize
  - 2.8477780681322259e+08 coef_ajuste + 1.3909685676273301e+08 Constant + [
   2.9151772779339057e+08 coef_ajuste ^2 ] / 2 
Subject To
Bounds
 coef_ajuste <= 1
 Constant = 1
End
